10
[[-1, 1341322582, 1932996066, 27505351, 1224277421, 1701499641, 2035049522, 117673188, 1901448978, 1425274666],[408913027, -1, 22754156, 1473472607, 576772674, 1174794956, 885924207, 1529704941, 458208949, 1452789411],[1595849760, 1034522796, -1, 29052545, 0, 1044163018, 462826530, 1712149799, 0, 973398765],[525941310, 1236158069, 81030307, -1, 615286804, 664682252, 438530521, 130117536, 0, 948153057],[1300323086, 845583373, 839949231, 414441762, -1, 139449933, 0, 731735692, 250884948, 2109826310],[515672112, 75726421, 1226604787, 358356556, 352777662, -1, 0, 1173547365, 362044710, 1491948715],[98434258, 1982335485, 0, 0, 1073158091, 1366362865, -1, 668288308, 351739814, 1958330881],[0, 1007635133, 1066692009, 2026123313, 1512796941, 0, 0, -1, 960142699, 1606031927],[160912704, 0, 2134251749, 1445350622, 0, 1785310177, 0, 1475211727, -1, 720194225],[1562416301, 0, 165903578, 401052143, 922456278, 1930301440, 1193818093, 0, 1389419598, -1]]